1111100 AB
358 378 399 419 439 459 479 500 522 546 579 612 645 680 715 750 785 820 844 868 891 914 940 966 991 1016 1041 1066 1084 1103 1122 1143 1159 1193 1210 1227 1265 1287 1300 1328 1357 1386 1415 4 33
1111100 AB red
562 593 628 662 767 1003 1175 1257
1111100 BA
390 410 436 460 480 507 528 546 561 584 617 650 683 718 753 788 823 858 882 906 933 958 984 1010 1035 1060 1085 1110 1128 1146 1162 1178 1194 1228 1262 1297 1332 1360 1389 1418 7 36
0000011 AB
386 415 445 476 507 526 557 588 619 650 681 712 743 774 805 836 867 902 933 964 995 1026 1057 1088 1119 1138 1159 1200 1221 1241 1270 1299 1356 1413 30
0000011 AB red
572 634 727 913 1094 1181
0000011 BA
390 417 449 480 495 511 542 561 592 623 654 685 716 747 778 809 840 871 902 937 968 999 1030 1061 1092 1123 1154 1173 1194 1235 1274 1331 1388 5 62
